c Erdos discrepancy
c
c n = length of sequence = 10
c C = discrepancy parameter = 6
c element i=0,...,n-1 is 1 if variable i+1 True else -1
c
p cnf 10 54
-1 -2 -3 -4 -5 -6 0
-1 -2 -3 -4 -5 -6 -7 8 0
-1 -2 -3 -4 -5 -6 7 -8 0
-1 -2 -3 -4 -5 6 -7 -8 0
-1 -2 -3 -4 5 -6 -7 -8 0
-1 -2 -3 4 -5 -6 -7 -8 0
-1 -2 3 -4 -5 -6 -7 -8 0
-1 2 -3 -4 -5 -6 -7 -8 0
1 -2 -3 -4 -5 -6 -7 -8 0
-1 -2 -3 -4 -5 -6 -7 -8 9 10 0
-1 -2 -3 -4 -5 -6 -7 8 -9 10 0
-1 -2 -3 -4 -5 -6 -7 8 9 -10 0
-1 -2 -3 -4 -5 -6 7 -8 -9 10 0
-1 -2 -3 -4 -5 -6 7 -8 9 -10 0
-1 -2 -3 -4 -5 -6 7 8 -9 -10 0
-1 -2 -3 -4 -5 6 -7 -8 -9 10 0
-1 -2 -3 -4 -5 6 -7 -8 9 -10 0
-1 -2 -3 -4 -5 6 -7 8 -9 -10 0
-1 -2 -3 -4 -5 6 7 -8 -9 -10 0
-1 -2 -3 -4 5 -6 -7 -8 -9 10 0
-1 -2 -3 -4 5 -6 -7 -8 9 -10 0
-1 -2 -3 -4 5 -6 -7 8 -9 -10 0
-1 -2 -3 -4 5 -6 7 -8 -9 -10 0
-1 -2 -3 -4 5 6 -7 -8 -9 -10 0
-1 -2 -3 4 -5 -6 -7 -8 -9 10 0
-1 -2 -3 4 -5 -6 -7 -8 9 -10 0
-1 -2 -3 4 -5 -6 -7 8 -9 -10 0
-1 -2 -3 4 -5 -6 7 -8 -9 -10 0
-1 -2 -3 4 -5 6 -7 -8 -9 -10 0
-1 -2 -3 4 5 -6 -7 -8 -9 -10 0
-1 -2 3 -4 -5 -6 -7 -8 -9 10 0
-1 -2 3 -4 -5 -6 -7 -8 9 -10 0
-1 -2 3 -4 -5 -6 -7 8 -9 -10 0
-1 -2 3 -4 -5 -6 7 -8 -9 -10 0
-1 -2 3 -4 -5 6 -7 -8 -9 -10 0
-1 -2 3 -4 5 -6 -7 -8 -9 -10 0
-1 -2 3 4 -5 -6 -7 -8 -9 -10 0
-1 2 -3 -4 -5 -6 -7 -8 -9 10 0
-1 2 -3 -4 -5 -6 -7 -8 9 -10 0
-1 2 -3 -4 -5 -6 -7 8 -9 -10 0
-1 2 -3 -4 -5 -6 7 -8 -9 -10 0
-1 2 -3 -4 -5 6 -7 -8 -9 -10 0
-1 2 -3 -4 5 -6 -7 -8 -9 -10 0
-1 2 -3 4 -5 -6 -7 -8 -9 -10 0
-1 2 3 -4 -5 -6 -7 -8 -9 -10 0
1 -2 -3 -4 -5 -6 -7 -8 -9 10 0
1 -2 -3 -4 -5 -6 -7 -8 9 -10 0
1 -2 -3 -4 -5 -6 -7 8 -9 -10 0
1 -2 -3 -4 -5 -6 7 -8 -9 -10 0
1 -2 -3 -4 -5 6 -7 -8 -9 -10 0
1 -2 -3 -4 5 -6 -7 -8 -9 -10 0
1 -2 -3 4 -5 -6 -7 -8 -9 -10 0
1 -2 3 -4 -5 -6 -7 -8 -9 -10 0
1 2 -3 -4 -5 -6 -7 -8 -9 -10 0
